param set_len = 24;
param target := 866892;
param values := [1] 55519 [2] 1295 [3] 120248 [4] 93470 [5] 74547 [6] 72852 [7] 91037 [8] 12536 [9] 88726 [10] 42054 [11] 8328 [12] 129169 [13] 58593 [14] 67857 [15] 4713 [16] 80429 [17] 128323 [18] 122990 [19] 70274 [20] 51324 [21] 29398 [22] 69475 [23] 40848 [24] 100507 ;
